s td 300 2 369
b 1 1
b 2 2 88
b 3 2 186
b 4 2 299
b 5 298 299
b 6 299
b 7 3
b 8 4 271
b 9 5 116
b 10 6 120
b 11 120 121
b 12 7 129
b 13 8
b 14 9 265
b 15 10 253
b 16 11 123
b 17 13 355
b 18 314 315
b 19 12 314
b 20 12 354
b 21 354 355
b 22 355
b 23 14 117
b 24 15 312
b 25 16 94
b 26 16 206
b 27 17 168
b 28 17 255
b 29 18 119
b 30 19
b 31 20 311
b 32 21 162
b 33 22 163
b 34 22 338
b 35 23 365
b 36 24
b 37 25 115
b 38 26 102
b 39 27 357
b 40 356 357
b 41 357
b 42 28 104
b 43 28 223
b 44 29 316
b 45 316 317
b 46 200 201
b 47 30 201
b 48 30 267
b 49 30 274
b 50 31 196
b 51 31 261
b 52 130 131
b 53 32 131
b 54 32 248
b 55 248 249
b 56 33 251
b 57 34 325
b 58 35
b 59 36 155
b 60 37 237
b 61 38 133
b 62 38 174
b 63 39 290
b 64 40
b 65 41 345
b 66 42 85
b 67 42 195
b 68 194 195
b 69 195
b 70 43 362
b 71 44 363
b 72 244 245
b 73 45 245
b 74 45 332
b 75 46
b 76 47 148
b 77 204 205
b 78 47 205
b 79 47 269
b 80 47 286
b 81 286 287
b 82 56 287
b 83 56 326
b 84 48 246
b 85 49 143
b 86 142 143
b 87 143
b 88 50 134
b 89 50 157
b 90 156 157
b 91 157
b 92 51 296
b 93 296 297
b 94 52 86
b 95 52 227
b 96 53 243
b 97 53 259
b 98 54 333
b 99 55 144
b 100 55 300
b 101 57
b 102 67 321
b 103 58 219
b 104 58 320
b 105 320 321
b 106 321
b 107 59 229
b 108 60 110
b 109 69 91
b 110 110 111
b 111 69 111
b 112 69 136
b 113 136 137
b 114 61 146
b 115 146 147
b 116 70 147
b 117 70 348
b 118 62 346
b 119 63 347
b 120 63 350
b 121 64
b 122 65 203
b 123 202 203
b 124 203
b 125 66 93
b 126 66 159
b 127 66 234
b 128 68 112
b 129 71 182
b 130 71 208
b 131 72 184
b 132 73
b 133 74 153
b 134 75 126
b 135 75 279
b 136 75 303
b 137 76 127
b 138 76 292
b 139 77
b 140 176 177
b 141 78 177
b 142 78 178
b 143 79 140
b 144 79 179
b 145 79 353
b 146 352 353
b 147 353
b 148 166 167
b 149 80 166
b 150 80 183
b 151 81
b 152 82
b 153 83
b 154 84
b 155 87
b 156 89
b 157 90
b 158 92
b 159 95
b 160 96
b 161 97
b 162 98
b 163 99
b 164 100 101
b 165 103
b 166 105
b 167 106 107
b 168 108 109
b 169 113
b 170 114
b 171 118
b 172 122
b 173 124 125
b 174 128
b 175 132
b 176 135
b 177 138
b 178 139
b 179 141
b 180 145
b 181 149
b 182 150
b 183 151
b 184 152
b 185 154
b 186 158
b 187 160 161
b 188 164
b 189 165
b 190 169
b 191 170
b 192 171
b 193 172 173
b 194 175
b 195 180
b 196 181
b 197 185
b 198 187
b 199 188
b 200 189
b 201 190
b 202 191
b 203 192
b 204 193
b 205 197
b 206 198 199
b 207 207
b 208 209
b 209 210
b 210 211
b 211 212
b 212 213
b 213 214
b 214 215
b 215 216
b 216 217
b 217 218
b 218 220
b 219 221
b 220 222
b 221 224
b 222 225
b 223 226
b 224 228
b 225 230
b 226 231
b 227 232
b 228 233
b 229 235
b 230 236
b 231 238 239
b 232 240
b 233 241
b 234 242
b 235 247
b 236 250
b 237 252
b 238 254
b 239 256
b 240 257
b 241 258
b 242 260
b 243 262 263
b 244 264
b 245 266
b 246 268
b 247 270
b 248 272
b 249 273
b 250 275
b 251 276
b 252 277
b 253 278
b 254 280
b 255 281
b 256 282
b 257 283
b 258 284
b 259 285
b 260 288 289
b 261 291
b 262 293
b 263 294
b 264 295
b 265 301
b 266 302
b 267 304
b 268 305
b 269 306
b 270 307
b 271 308
b 272 309
b 273 310
b 274 313
b 275 318 319
b 276 322
b 277 323
b 278 324
b 279 327
b 280 328 329
b 281 330
b 282 331
b 283 334
b 284 335
b 285 336
b 286 337
b 287 339
b 288 340
b 289 341
b 290 342 343
b 291 344
b 292 349
b 293 351
b 294 358
b 295 359
b 296 360 361
b 297 364
b 298 366
b 299 367
b 300 368 369
1 2
1 7
1 8
1 9
1 10
1 12
1 13
1 14
1 15
1 16
1 17
1 23
1 24
1 25
1 27
1 29
1 30
1 31
1 32
1 33
1 35
1 36
1 37
1 38
1 39
1 42
1 44
1 46
1 50
1 52
1 56
1 57
1 58
1 59
1 60
1 61
1 63
1 64
1 65
1 66
1 70
1 71
1 72
1 75
1 76
1 84
1 85
1 88
1 92
1 94
1 96
1 98
1 99
1 101
1 102
1 107
1 108
1 114
1 118
1 119
1 121
1 122
1 125
1 128
1 129
1 131
1 132
1 133
1 134
1 137
1 139
1 140
1 143
1 148
1 151
1 152
1 153
1 154
1 155
1 156
1 157
1 158
1 159
1 160
1 161
1 162
1 163
1 164
1 165
1 166
1 167
1 168
1 169
1 170
1 171
1 172
1 173
1 174
1 175
1 176
1 177
1 178
1 179
1 180
1 181
1 182
1 183
1 184
1 185
1 186
1 187
1 188
1 189
1 190
1 191
1 192
1 193
1 194
1 195
1 196
1 197
1 198
1 199
1 200
1 201
1 202
1 203
1 204
1 205
1 206
1 207
1 208
1 209
1 210
1 211
1 212
1 213
1 214
1 215
1 216
1 217
1 218
1 219
1 220
1 221
1 222
1 223
1 224
1 225
1 226
1 227
1 228
1 229
1 230
1 231
1 232
1 233
1 234
1 235
1 236
1 237
1 238
1 239
1 240
1 241
1 242
1 243
1 244
1 245
1 246
1 247
1 248
1 249
1 250
1 251
1 252
1 253
1 254
1 255
1 256
1 257
1 258
1 259
1 260
1 261
1 262
1 263
1 264
1 265
1 266
1 267
1 268
1 269
1 270
1 271
1 272
1 273
1 274
1 275
1 276
1 277
1 278
1 279
1 280
1 281
1 282
1 283
1 284
1 285
1 286
1 287
1 288
1 289
1 290
1 291
1 292
1 293
1 294
1 295
1 296
1 297
1 298
1 299
1 300
2 4
3 4
4 6
5 6
10 11
17 22
18 19
19 20
20 21
21 22
25 26
27 28
33 34
39 41
40 41
42 43
44 45
46 47
47 49
48 49
50 51
52 53
53 54
54 55
61 62
66 67
67 69
68 69
72 73
73 74
76 80
77 78
78 80
79 80
80 81
81 82
82 83
85 87
86 87
88 89
89 91
90 91
92 93
94 95
96 97
99 100
102 106
103 104
104 105
105 106
108 110
109 112
110 111
111 112
112 113
114 115
115 116
116 117
119 120
122 124
123 124
125 127
126 127
129 130
134 136
135 136
137 138
140 141
141 142
143 145
144 145
145 147
146 147
148 149
149 150
